1 636030407
2 636030407
3 636030407
4 636030407
5 635545993
6 635545993
7 635545993
8 635545993
9 635545993
10 635545993
11 634889895
12 629816584
13 629816584
14 629816584
15 624366549
16 624366549
17 624366549
18 624366549
19 624366549
20 624366549
21 621576792
22 621576792
23 615473797
24 615473797
25 615473797
26 615473797
27 615473797
28 610497203
29 610497203
30 610497203
